(set-logic HORN)
(set-info :source |
    Benchmark: C_VC
    Output by Princess (http://www.philipp.ruemmer.org/princess.shtml)
|)
(set-info :status sat)
;===============================================================================
; Encoding of Heap sorts and operations
;-------------------------------------------------------------------------------
(define-sort Addr() Int)
(declare-datatypes ((AddrRange 0))
                   (((AddrRange (AddrRangeStart Addr) (AddrRangeSize Int)))))

(declare-datatypes ((HeapObject 0) (node 0))
                   (((O_Int (getInt Int)) (O_UInt (getUInt Int)) (O_Addr (getAddr Addr)) (O_AddrRange (getAddrRange AddrRange)) (O_node (getnode node)) (defObj))
                   ((node (|node::h| Int) (|node::n| Addr)))))
(declare-datatypes ((BatchAllocResHeap 0) (AllocResHeap 0) (Heap 0))
                   (((BatchAllocResHeap   (newBatchHeap Heap) (newAddrRange AddrRange)))
                   ((AllocResHeap   (newHeap Heap) (newAddr Addr)))
                    ((HeapCtor (HeapSize Int)
                               (HeapContents (Array Addr HeapObject))))))
(define-fun nullAddr  () Addr 0)
(define-fun valid     ((h Heap) (p Addr)) Bool
  (and (>= (HeapSize h) p) (> p 0)))
(define-fun emptyHeap () Heap (
  HeapCtor 0 (( as const (Array Addr HeapObject)) defObj)))
(define-fun read ((h Heap) (p Addr)) HeapObject
  (ite (valid h p)
       (select (HeapContents h) p)
       defObj))
(define-fun write ((h Heap) (p Addr) (o HeapObject)) Heap
  (ite (valid h p)
       (HeapCtor (HeapSize h) (store (HeapContents h) p o))
       h))
(define-fun alloc   ((h Heap) (o HeapObject)) AllocResHeap
  (AllocResHeap (HeapCtor (+ 1 (HeapSize h))
                    (store (HeapContents h) (+ 1 (HeapSize h)) o))
          (+ 1 (HeapSize h))))

;===============================================================================
(declare-fun inv_main548_3 (Heap) Bool)
(declare-fun inv_main549_15 (Heap Addr Int) Bool)
(declare-fun inv_main552_3 (Heap Addr Addr Addr Int) Bool)
(declare-fun inv_main556_17 (Heap Addr Addr Addr Int Int) Bool)
(declare-fun inv_main565_3 (Heap Addr Addr Addr Int Int Int) Bool)
(declare-fun inv_main575_6 (Heap Addr Addr Addr Int Int Int) Bool)
(assert (forall ((var0 Heap)) (or (not (= var0 emptyHeap)) (inv_main548_3 var0))))
(assert (forall ((var0 Int) (var1 Int) (var2 Int) (var3 Int) (var4 Int) (var5 Addr) (var6 Addr) (var7 Addr) (var8 Heap) (var9 Int) (var10 Addr) (var11 Int) (var12 Int) (var13 Int) (var14 Int) (var15 Int) (var16 Addr) (var17 Addr) (var18 Addr) (var19 Addr) (var20 Addr) (var21 Addr) (var22 Heap) (var23 Heap) (var24 Int) (var25 Int) (var26 Int) (var27 Addr) (var28 Addr) (var29 Addr) (var30 Heap)) (or (not (and (inv_main565_3 var30 var29 var28 var27 var26 var25 var24) (and (and (and (and (and (and (and (and (= var23 var22) (= var21 var20)) (= var19 var18)) (= var17 var16)) (= var15 var14)) (= var13 var12)) (= var11 1)) (= var10 (|node::n| (getnode (read var22 var16))))) (and (and (= var9 6) (and (and (and (and (and (and (and (= var22 var8) (= var20 var7)) (= var18 var6)) (= var16 var5)) (= var14 var4)) (= var12 1)) (= var3 var2)) (= var9 (|node::h| (getnode (read var8 var5)))))) (and (and (= var1 2) (and (and (and (and (and (and (and (= var8 var30) (= var7 var29)) (= var6 var28)) (= var5 var27)) (= var4 var26)) (= var0 var25)) (= var2 var24)) (= var1 (|node::h| (getnode (read var30 var27)))))) (not (= var27 nullAddr))))))) (inv_main565_3 var23 var21 var19 var10 var15 var13 var11))))
(assert (forall ((var0 Int) (var1 Int) (var2 Int) (var3 Int) (var4 Addr) (var5 Addr) (var6 Addr) (var7 Heap) (var8 Int) (var9 Addr) (var10 Int) (var11 Int) (var12 Int) (var13 Int) (var14 Int) (var15 Int) (var16 Addr) (var17 Addr) (var18 Addr) (var19 Addr) (var20 Addr) (var21 Addr) (var22 Heap) (var23 Heap) (var24 Int) (var25 Int) (var26 Int) (var27 Addr) (var28 Addr) (var29 Addr) (var30 Heap)) (or (not (and (inv_main565_3 var30 var29 var28 var27 var26 var25 var24) (and (and (and (and (and (and (and (and (= var23 var22) (= var21 var20)) (= var19 var18)) (= var17 var16)) (= var15 var14)) (= var13 var12)) (= var11 var10)) (= var9 (|node::n| (getnode (read var22 var16))))) (and (and (not (= var8 6)) (and (and (and (and (and (and (and (= var22 var7) (= var20 var6)) (= var18 var5)) (= var16 var4)) (= var14 var3)) (= var12 1)) (= var10 var2)) (= var8 (|node::h| (getnode (read var7 var4)))))) (and (and (= var1 2) (and (and (and (and (and (and (and (= var7 var30) (= var6 var29)) (= var5 var28)) (= var4 var27)) (= var3 var26)) (= var0 var25)) (= var2 var24)) (= var1 (|node::h| (getnode (read var30 var27)))))) (not (= var27 nullAddr))))))) (inv_main565_3 var23 var21 var19 var9 var15 var13 var11))))
(assert (forall ((var0 Int) (var1 Int) (var2 Int) (var3 Int) (var4 Int) (var5 Addr) (var6 Addr) (var7 Addr) (var8 Heap) (var9 Int) (var10 Addr) (var11 Int) (var12 Int) (var13 Int) (var14 Int) (var15 Int) (var16 Addr) (var17 Addr) (var18 Addr) (var19 Addr) (var20 Addr) (var21 Addr) (var22 Heap) (var23 Heap) (var24 Int) (var25 Int) (var26 Int) (var27 Addr) (var28 Addr) (var29 Addr) (var30 Heap)) (or (not (and (inv_main565_3 var30 var29 var28 var27 var26 var25 var24) (and (and (and (and (and (and (and (and (= var23 var22) (= var21 var20)) (= var19 var18)) (= var17 var16)) (= var15 var14)) (= var13 var12)) (= var11 1)) (= var10 (|node::n| (getnode (read var22 var16))))) (and (and (= var9 6) (and (and (and (and (and (and (and (= var22 var8) (= var20 var7)) (= var18 var6)) (= var16 var5)) (= var14 var4)) (= var12 var3)) (= var2 var1)) (= var9 (|node::h| (getnode (read var8 var5)))))) (and (and (not (= var0 2)) (and (and (and (and (and (and (and (= var8 var30) (= var7 var29)) (= var6 var28)) (= var5 var27)) (= var4 var26)) (= var3 var25)) (= var1 var24)) (= var0 (|node::h| (getnode (read var30 var27)))))) (not (= var27 nullAddr))))))) (inv_main565_3 var23 var21 var19 var10 var15 var13 var11))))
(assert (forall ((var0 Int) (var1 Int) (var2 Int) (var3 Int) (var4 Addr) (var5 Addr) (var6 Addr) (var7 Heap) (var8 Int) (var9 Addr) (var10 Int) (var11 Int) (var12 Int) (var13 Int) (var14 Int) (var15 Int) (var16 Addr) (var17 Addr) (var18 Addr) (var19 Addr) (var20 Addr) (var21 Addr) (var22 Heap) (var23 Heap) (var24 Int) (var25 Int) (var26 Int) (var27 Addr) (var28 Addr) (var29 Addr) (var30 Heap)) (or (not (and (inv_main565_3 var30 var29 var28 var27 var26 var25 var24) (and (and (and (and (and (and (and (and (= var23 var22) (= var21 var20)) (= var19 var18)) (= var17 var16)) (= var15 var14)) (= var13 var12)) (= var11 var10)) (= var9 (|node::n| (getnode (read var22 var16))))) (and (and (not (= var8 6)) (and (and (and (and (and (and (and (= var22 var7) (= var20 var6)) (= var18 var5)) (= var16 var4)) (= var14 var3)) (= var12 var2)) (= var10 var1)) (= var8 (|node::h| (getnode (read var7 var4)))))) (and (and (not (= var0 2)) (and (and (and (and (and (and (and (= var7 var30) (= var6 var29)) (= var5 var28)) (= var4 var27)) (= var3 var26)) (= var2 var25)) (= var1 var24)) (= var0 (|node::h| (getnode (read var30 var27)))))) (not (= var27 nullAddr))))))) (inv_main565_3 var23 var21 var19 var9 var15 var13 var11))))
(assert (forall ((var0 Int) (var1 Int) (var2 Int) (var3 Addr) (var4 Addr) (var5 Addr) (var6 Heap) (var7 Int) (var8 Addr) (var9 Addr) (var10 Addr) (var11 Heap) (var12 Int) (var13 Int) (var14 Addr) (var15 Addr) (var16 Addr) (var17 Heap)) (or (not (and (inv_main552_3 var17 var16 var15 var14 var13) (and (and (and (and (and (= var12 0) (not (<= 0 (+ (+ 10 (* (- 1) var13)) (- 1))))) (and (and (and (and (= var11 (write var17 var14 (O_node (node var13 (|node::n| (getnode (read var17 var14))))))) (= var10 var16)) (= var9 var15)) (= var8 var14)) (= var7 var13))) (and (and (and (and (= var6 (write var11 var8 (O_node (node (|node::h| (getnode (read var11 var8))) 0)))) (= var5 var10)) (= var4 var9)) (= var3 var8)) (= var2 var7))) (= var1 0)) (= var0 0)))) (inv_main565_3 var6 var5 var4 var5 var2 var1 var0))))
(assert (forall ((var0 Int) (var1 Int) (var2 Addr) (var3 Addr) (var4 Addr) (var5 Addr) (var6 node) (var7 Heap) (var8 Int) (var9 Addr) (var10 Addr) (var11 Addr) (var12 Heap) (var13 Addr) (var14 Int) (var15 Int) (var16 Addr) (var17 Addr) (var18 Addr) (var19 Addr) (var20 Addr) (var21 Addr) (var22 Heap) (var23 Heap) (var24 Int) (var25 Addr) (var26 Addr) (var27 Addr) (var28 Heap)) (or (not (and (inv_main552_3 var28 var27 var26 var25 var24) (and (and (and (and (and (and (and (and (= var23 var22) (= var21 var20)) (= var19 var18)) (= var17 var16)) (= var15 var14)) (= var13 (|node::n| (getnode (read var22 var16))))) (and (and (and (and (= var22 (write var12 var11 (O_node (node (|node::h| (getnode (read var12 var11))) var10)))) (= var20 var9)) (= var18 var10)) (= var16 var11)) (= var14 var8))) (and (not (= var10 nullAddr)) (and (and (and (and (and (and (and (= var12 (newHeap (alloc var7 (O_node var6)))) (= var9 var5)) (= var4 var3)) (= var11 var2)) (= var8 var1)) (= var10 (newAddr (alloc var7 (O_node var6))))) (<= 0 (+ (+ 10 (* (- 1) var24)) (- 1)))) (and (and (and (and (= var7 (write var28 var25 (O_node (node var24 (|node::n| (getnode (read var28 var25))))))) (= var5 var27)) (= var3 var26)) (= var2 var25)) (= var1 var24))))) (= var0 (+ var15 1))))) (inv_main552_3 var23 var21 var19 var13 var0))))
(assert (forall ((var0 Int) (var1 Int) (var2 Int) (var3 Addr) (var4 Addr) (var5 Addr) (var6 Addr) (var7 node) (var8 Heap) (var9 Int) (var10 Addr) (var11 Addr) (var12 Addr) (var13 Heap) (var14 Addr) (var15 Int) (var16 Int) (var17 Addr) (var18 Addr) (var19 Addr) (var20 Addr) (var21 Addr) (var22 Addr) (var23 Heap) (var24 Heap) (var25 Int) (var26 Addr) (var27 Addr) (var28 Addr) (var29 Heap)) (or (not (and (inv_main552_3 var29 var28 var27 var26 var25) (and (and (and (and (and (and (and (and (= var24 var23) (= var22 var21)) (= var20 var19)) (= var18 var17)) (= var16 var15)) (= var14 (|node::n| (getnode (read var23 var17))))) (and (and (and (and (= var23 (write var13 var12 (O_node (node (|node::h| (getnode (read var13 var12))) var11)))) (= var21 var10)) (= var19 var11)) (= var17 var12)) (= var15 var9))) (and (not (= var11 nullAddr)) (and (and (and (and (and (and (and (= var13 (newHeap (alloc var8 (O_node var7)))) (= var10 var6)) (= var5 var4)) (= var12 var3)) (= var9 var2)) (= var11 (newAddr (alloc var8 (O_node var7))))) (and (not (= var1 0)) (not (<= 0 (+ (+ 10 (* (- 1) var25)) (- 1)))))) (and (and (and (and (= var8 (write var29 var26 (O_node (node var25 (|node::n| (getnode (read var29 var26))))))) (= var6 var28)) (= var4 var27)) (= var3 var26)) (= var2 var25))))) (= var0 (+ var16 1))))) (inv_main552_3 var24 var22 var20 var14 var0))))
(assert (forall ((var0 Addr) (var1 Int) (var2 node) (var3 Heap) (var4 Addr) (var5 Heap)) (or (not (and (inv_main548_3 var5) (and (and (not (= var4 nullAddr)) (and (= var3 (newHeap (alloc var5 (O_node var2)))) (= var4 (newAddr (alloc var5 (O_node var2)))))) (= var1 0)))) (inv_main552_3 var3 var4 var0 var4 var1))))
(assert (forall ((var0 Int) (var1 Addr) (var2 Heap)) (or (not (inv_main549_15 var2 var1 var0)) (inv_main549_15 var2 var1 var0))))
(assert (forall ((var0 Int) (var1 node) (var2 Heap) (var3 Addr) (var4 Heap)) (or (not (and (inv_main548_3 var4) (and (and (= var3 nullAddr) (and (= var2 (newHeap (alloc var4 (O_node var1)))) (= var3 (newAddr (alloc var4 (O_node var1)))))) (= var0 1)))) (inv_main549_15 var2 var3 var0))))
(assert (forall ((var0 Int) (var1 Int) (var2 Int) (var3 Addr) (var4 Addr) (var5 Addr) (var6 Heap)) (or (not (and (inv_main565_3 var6 var5 var4 var3 var2 var1 var0) (and (or (= var0 0) (= var1 0)) (= var3 nullAddr)))) (inv_main575_6 var6 var5 var4 var3 var2 var1 var0))))
(assert (forall ((var0 Int) (var1 Int) (var2 Addr) (var3 Addr) (var4 Addr) (var5 Heap)) (or (not (inv_main556_17 var5 var4 var3 var2 var1 var0)) (inv_main556_17 var5 var4 var3 var2 var1 var0))))
(assert (forall ((var0 Int) (var1 Int) (var2 Int) (var3 Addr) (var4 Addr) (var5 Addr) (var6 Addr) (var7 Addr) (var8 Addr) (var9 node) (var10 Heap) (var11 Heap) (var12 Addr) (var13 Int) (var14 Addr) (var15 Addr) (var16 Addr) (var17 Heap)) (or (not (and (inv_main552_3 var17 var16 var15 var14 var13) (and (and (= var12 nullAddr) (and (and (and (and (and (and (and (= var11 (newHeap (alloc var10 (O_node var9)))) (= var8 var7)) (= var6 var5)) (= var4 var3)) (= var2 var1)) (= var12 (newAddr (alloc var10 (O_node var9))))) (<= 0 (+ (+ 10 (* (- 1) var13)) (- 1)))) (and (and (and (and (= var10 (write var17 var14 (O_node (node var13 (|node::n| (getnode (read var17 var14))))))) (= var7 var16)) (= var5 var15)) (= var3 var14)) (= var1 var13)))) (= var0 1)))) (inv_main556_17 var11 var8 var12 var4 var2 var0))))
(assert (forall ((var0 Int) (var1 Int) (var2 Int) (var3 Int) (var4 Addr) (var5 Addr) (var6 Addr) (var7 Addr) (var8 Addr) (var9 Addr) (var10 node) (var11 Heap) (var12 Heap) (var13 Addr) (var14 Int) (var15 Addr) (var16 Addr) (var17 Addr) (var18 Heap)) (or (not (and (inv_main552_3 var18 var17 var16 var15 var14) (and (and (= var13 nullAddr) (and (and (and (and (and (and (and (= var12 (newHeap (alloc var11 (O_node var10)))) (= var9 var8)) (= var7 var6)) (= var5 var4)) (= var3 var2)) (= var13 (newAddr (alloc var11 (O_node var10))))) (and (not (= var1 0)) (not (<= 0 (+ (+ 10 (* (- 1) var14)) (- 1)))))) (and (and (and (and (= var11 (write var18 var15 (O_node (node var14 (|node::n| (getnode (read var18 var15))))))) (= var8 var17)) (= var6 var16)) (= var4 var15)) (= var2 var14)))) (= var0 1)))) (inv_main556_17 var12 var9 var13 var5 var3 var0))))
(assert (forall ((var0 Int) (var1 Int) (var2 Int) (var3 Addr) (var4 Addr) (var5 Addr) (var6 Heap)) (not (inv_main575_6 var6 var5 var4 var3 var2 var1 var0))))
(check-sat)
